143
1000
375
45
230
409
294
239
325
6
349
496
319
371
274
335
18
443
19
203
403
260
16
5
437
29
484
460
225
87
82
449
4
59
72
326
344
262
220
378
157
117
306
69
78
313
343
15
250
232
96
213
41
172
290
44
450
90
8
37
236
83
198
472
266
259
53
453
98
74
344
262
122
107
488
2
223
23
129
241
86
254
416
186
426
237
171
193
386
389
20
29
19
198
287
25
118
461
13
161
45
157
329
328
16
396
459
226
158
271
398
75
412
387
222
23
424
381
6
1
334
391
93
68
17
8
136
372
51
176
33
81
102
310
162
314
163
141
108
497
219
113
28
137
351
